c n orig vars 215
p cnf 347 525
-265 0
216 -37 0
216 -30 0
216 -31 0
216 -32 0
216 -33 0
216 -218 0
-216 37 30 31 32 33 218 0
217 -56 0
217 -55 0
217 -54 0
217 -25 0
217 -26 0
217 -224 0
-217 56 55 54 25 26 224 0
218 -28 0
218 -29 0
218 -63 0
218 -62 0
218 -61 0
218 -219 0
-218 28 29 63 62 61 219 0
219 -60 0
219 -59 0
219 -58 0
219 -57 0
-219 60 59 58 57 0
220 -222 0
220 -223 0
-220 222 223 0
221 -174 0
221 -34 0
-221 174 34 0
-222 35 0
-222 36 0
222 -35 -36 0
223 -216 0
223 -217 0
-223 216 217 0
224 -23 0
224 -24 0
224 -21 0
224 -22 0
224 -19 0
-224 23 24 21 22 19 0
-225 20 0
-225 334 0
225 -20 -334 0
-226 347 0
-226 346 0
226 -347 -346 0
-227 226 0
-227 271 0
-227 317 0
227 -226 -271 -317 0
-228 272 0
-228 347 0
228 -272 -347 0
229 -228 0
229 -227 0
-229 228 227 0
-230 272 0
-230 346 0
230 -272 -346 0
-231 226 0
-231 234 0
-231 233 0
231 -226 -234 -233 0
232 -98 0
232 -97 0
232 -92 0
232 -231 0
232 -230 0
232 -229 0
-232 98 97 92 231 230 229 0
233 -267 0
233 -266 0
233 -273 0
-233 267 266 273 0
234 -270 0
234 -275 0
234 -274 0
-234 270 275 274 0
235 -204 0
235 -205 0
235 -183 0
235 -182 0
235 -181 0
235 -180 0
-235 204 205 183 182 181 180 0
236 -203 0
236 -196 0
236 -197 0
236 -198 0
236 -199 0
236 -235 0
-236 203 196 197 198 199 235 0
237 -162 0
237 -163 0
237 -160 0
237 -161 0
237 -164 0
237 -165 0
-237 162 163 160 161 164 165 0
238 -184 0
238 -158 0
238 -159 0
238 -156 0
238 -157 0
238 -237 0
-238 184 158 159 156 157 237 0
-239 241 0
-239 137 0
239 -241 -137 0
240 -135 0
240 -138 0
-240 135 138 0
241 -134 0
241 -133 0
-241 134 133 0
242 -106 0
242 -107 0
242 -108 0
242 -109 0
242 -110 0
242 -244 0
-242 106 107 108 109 110 244 0
243 -343 0
243 -292 0
-243 343 292 0
244 -111 0
244 -112 0
244 -113 0
-244 111 112 113 0
245 -246 0
245 -253 0
245 -254 0
-245 246 253 254 0
246 -2 0
246 -1 0
246 -200 0
246 -201 0
246 -202 0
246 -236 0
-246 2 1 200 201 202 236 0
247 -8 0
247 -7 0
-247 8 7 0
-248 10 0
-248 9 0
248 -10 -9 0
-249 5 0
-249 247 0
249 -5 -247 0
250 -248 0
250 -245 0
-250 248 245 0
251 -249 0
251 -250 0
-251 249 250 0
252 -239 0
252 -242 0
-252 239 242 0
253 -179 0
253 -178 0
253 -177 0
253 -176 0
253 -185 0
253 -238 0
-253 179 178 177 176 185 238 0
254 -140 0
254 -139 0
254 -142 0
254 -141 0
254 -136 0
254 -240 0
-254 140 139 142 141 136 240 0
255 -191 0
255 -192 0
255 -193 0
255 -194 0
255 -195 0
255 -256 0
-255 191 192 193 194 195 256 0
256 -209 0
256 -208 0
-256 209 208 0
-257 259 0
-257 207 0
257 -259 -207 0
258 -212 0
258 -211 0
258 -210 0
258 -215 0
258 -214 0
-258 212 211 210 215 214 0
259 -206 0
259 -213 0
-259 206 213 0
-260 333 0
-260 322 0
260 -333 -322 0
261 -262 0
261 -89 0
261 -263 0
-261 262 89 263 0
262 -280 0
262 -130 0
-262 280 130 0
263 -90 0
263 -87 0
263 -88 0
-263 90 87 88 0
-264 277 0
-264 276 0
264 -277 -276 0
265 -99 0
265 -101 0
265 -100 0
265 -96 0
265 -95 0
265 -232 0
-265 99 101 100 96 95 232 0
266 -283 0
266 -282 0
-266 283 282 0
267 -262 0
267 -297 0
267 -332 0
-267 262 297 332 0
268 -13 0
268 -16 0
268 -15 0
-268 13 16 15 0
269 -38 0
269 -39 0
-269 38 39 0
-270 322 0
-270 323 0
270 -322 -323 0
271 -264 0
271 -279 0
271 -278 0
-271 264 279 278 0
-272 234 0
-272 271 0
272 -234 -271 0
273 -117 0
273 -114 0
273 -115 0
-273 117 114 115 0
274 -260 0
274 -261 0
-274 260 261 0
-275 323 0
-275 333 0
275 -323 -333 0
276 -332 0
276 -266 0
-276 332 266 0
277 -285 0
277 -284 0
-277 285 284 0
278 -299 0
278 -296 0
-278 299 296 0
-279 262 0
-279 277 0
279 -262 -277 0
280 -129 0
280 -124 0
280 -123 0
280 -126 0
280 -125 0
280 -122 0
-280 129 124 123 126 125 122 0
281 -94 0
281 -91 0
-281 94 91 0
282 -27 0
282 -128 0
282 -131 0
282 -66 0
282 -127 0
-282 27 128 131 66 127 0
-283 281 0
-283 93 0
283 -281 -93 0
284 -310 0
284 -302 0
-284 310 302 0
-285 304 0
-285 325 0
285 -304 -325 0
286 -288 0
286 -289 0
-286 288 289 0
287 -288 0
287 -290 0
-287 288 290 0
-288 76 0
-288 291 0
288 -76 -291 0
289 -103 0
289 -104 0
289 -72 0
289 -71 0
289 -70 0
289 -69 0
-289 103 104 72 71 70 69 0
290 -67 0
290 -44 0
290 -45 0
290 -42 0
290 -43 0
290 -40 0
-290 67 44 45 42 43 40 0
291 -75 0
291 -74 0
291 -73 0
291 -68 0
-291 75 74 73 68 0
292 -251 0
292 -293 0
-292 251 293 0
293 -294 0
293 -295 0
-293 294 295 0
-294 41 0
-294 269 0
294 -41 -269 0
295 -52 0
295 -53 0
295 -12 0
295 -11 0
295 -14 0
295 -268 0
-295 52 53 12 11 14 268 0
296 -297 0
296 -273 0
-296 297 273 0
297 -322 0
297 -89 0
-297 322 89 0
298 -150 0
298 -149 0
-298 150 149 0
-299 276 0
-299 262 0
299 -276 -262 0
-300 298 0
-300 147 0
300 -298 -147 0
301 -152 0
301 -151 0
301 -118 0
301 -119 0
301 -116 0
-301 152 151 118 119 116 0
302 -308 0
302 -303 0
-302 308 303 0
303 -300 0
303 -301 0
-303 300 301 0
304 -324 0
304 -130 0
-304 324 130 0
305 -121 0
305 -144 0
305 -143 0
305 -146 0
305 -145 0
305 -148 0
-305 121 144 143 146 145 148 0
-306 168 0
-306 167 0
306 -168 -167 0
-307 169 0
-307 166 0
307 -169 -166 0
308 -314 0
308 -220 0
-308 314 220 0
-309 169 0
-309 168 0
309 -169 -168 0
310 -312 0
310 -307 0
310 -306 0
310 -309 0
-310 312 307 306 309 0
311 -171 0
311 -170 0
311 -173 0
311 -172 0
-311 171 170 173 172 0
-312 167 0
-312 166 0
312 -167 -166 0
313 -308 0
313 -315 0
-313 308 315 0
-314 175 0
-314 221 0
314 -175 -221 0
315 -225 0
315 -335 0
-315 225 335 0
-316 325 0
-316 324 0
316 -325 -324 0
317 -326 0
317 -267 0
317 -331 0
317 -263 0
317 -316 0
-317 326 267 331 263 316 0
318 -80 0
318 -85 0
318 -86 0
318 -83 0
318 -84 0
318 -77 0
-318 80 85 86 83 84 77 0
-319 78 0
-319 311 0
319 -78 -311 0
320 -17 0
320 -155 0
320 -154 0
320 -81 0
320 -82 0
320 -79 0
-320 17 155 154 81 82 79 0
-321 327 0
-321 324 0
321 -327 -324 0
322 -18 0
322 -320 0
-322 18 320 0
323 -321 0
323 -326 0
-323 321 326 0
324 -318 0
324 -319 0
-324 318 319 0
325 -305 0
325 -319 0
-325 305 319 0
326 -310 0
326 -313 0
-326 310 313 0
327 -325 0
327 -18 0
-327 325 18 0
328 -120 0
328 -105 0
-328 120 105 0
329 -337 0
329 -336 0
-329 337 336 0
-330 328 0
-330 50 0
330 -328 -50 0
331 -257 0
331 -258 0
-331 257 258 0
332 -330 0
332 -329 0
-332 330 329 0
333 -332 0
333 -331 0
-333 332 331 0
334 -49 0
334 -153 0
-334 49 153 0
335 -47 0
335 -46 0
335 -102 0
335 -48 0
335 -51 0
-335 47 46 102 48 51 0
336 -186 0
336 -187 0
336 -188 0
336 -189 0
336 -190 0
336 -255 0
-336 186 187 188 189 190 255 0
-337 65 0
-337 64 0
337 -65 -64 0
-338 6 0
-338 3 0
338 -6 -3 0
-339 4 0
-339 6 0
339 -4 -6 0
-340 132 0
-340 3 0
340 -132 -3 0
-341 132 0
-341 4 0
341 -132 -4 0
342 -251 0
342 -252 0
-342 251 252 0
343 -341 0
343 -340 0
343 -339 0
343 -338 0
-343 341 340 339 338 0
344 -343 0
344 -342 0
-344 343 342 0
-345 286 0
-345 287 0
345 -286 -287 0
346 -345 0
346 -243 0
-346 345 243 0
347 -345 0
347 -344 0
-347 345 344 0
